
d1 = 1;
d2 = 1;
c1 = 70;
c2 = 150;
c3 = 40;
Nodes = array1d(1..10,[1, 2, 3, 4, 5, 6, 7, 8, 9, 10]);

Nodes_Capacities = array1d(1..10, [c3, c3, c3, c2, c2, c2, c3, c3, c3, c2]);

Link_info = array2d(1..28, 1..4,[
1, 6, 1, c1, 1, 8, 1, c1, 1, 9, 1, c1, 
2, 3, 1, c1, 2, 6, 1, c1, 2, 9, 1, c1, 
3, 2, 1, c1, 3, 4, 1, c1, 3, 7, 1, c1, 
4, 10, 1, c1, 4, 3, 1, c1, 4, 8, 1, c1, 4, 9, 1, c1, 
5, 6, 1, c1, 
6, 2, 1, c1, 6, 1, 1, c1, 6, 7, 1, c1, 6, 5, 1, c1, 
7, 3, 1, c1, 7, 6, 1, c1, 7, 8, 1, c1, 
8, 4, 1, c1, 8, 1, 1, c1, 8, 7, 1, c1, 
9, 2, 1, c1, 9, 4, 1, c1, 9, 1, 1, c1, 
10, 4, 1, c1]);

Flow_demands = [20,20,20];
%Limits = [10,10,10];
s = [10, 10, 10];
t = [5, 5, 5];







